unsat
(:max-memory         18.62
 :memory             18.42
 :nlsat-arith-var    3
 :nlsat-atoms        11
 :nlsat-bool-var     1
 :nlsat-clauses      8
 :nlsat-conflicts    3
 :nlsat-propagations 14
 :nlsat-stages       4
 :num-allocs         79283
 :rlimit-count       6778
 :time               0.01
 :total-time         0.01)
